 53 46 70 21 67 42 96 83 62 81 41 72 92 67 25
 57 41 45 89 17 34 76 55 94 32 43 19 54 47 23
 51 77 73 86 16 49 22 53 20 71 63  3 50 14  5
 89 40 14 31 23 26 17 46 33 76 75 28 18 19 92
 15 29 36  3 59 43 16 96 62 76 39 25 33 34 16
 84 33 69 43 97 66 46  1 47 18 12 87 36 72 16
  9 57 39 83 80 49 73 71 12  8 19 77 62 72 98
 92 99 30 42 88 81 95  3 76 33 22 99 32 18 73
 24 49 54 95 28 98 83 66 26 78 29  9 25 46 97
 38 79 72 94 65 82 20 29 57 77  5 15 90 47 85
 15 35 78 69 73 59 20  3 14 58 80 64 47 95 32
 58 17 67 20 90 83 51 24 15 76 80 35 96 61 77
 89 49 62 47 46 77 62 42 64 98 35 67 48  1 36
  4 49 28  5 83 89 24 60 49 42 82 14 94 51 77
 51 49 86  8 83 86 46 42 53 50  3 60 44 34 37